\ENCODING=ISO-8859-1
\Problem name: IloCplex

Minimize
 obj1: 3 x_a_0 + 2 x_a_1 + 2 x_a_2 + 3 x_a_3 + 2 x_a_4 + 2 x_a_5 + 2 x_a_6
       + x_a_7 + 2 x_a_8 + x_a_9 + 3 x_a_10 + x_a_11 + x_a_12 + 2 x_a_13
       + 2 x_a_14 + 3 x_a_15 + 3 x_a_16 + 2 x_a_17 + 2 x_a_18 + x_a_19
       + 2 x_a_20 + x_a_21 + x_a_22 + 2 x_a_23 + 2 x_a_24 + 3 x_a_25 + 3 x_a_26
       + 2 x_a_27 + 3 x_a_28 + 3 x_a_29 + x_a_30 + 2 x_a_31 + 3 x_a_32
       + 2 x_a_33 + 3 x_a_34 + 3 x_a_35 + 2 x_a_36 + 3 x_a_37 + 2 x_a_38
       + x_a_39 + x_a_40 + x_a_41 + 2 x_a_42 + 3 x_a_43 + 2 x_a_44 + 2 x_a_45
       + x_a_46 + x_a_47 + x_a_48 + 3 x_a_49 + 2 x_a_50 + 2 x_a_51 + 2 x_a_52
       + x_a_53 + 3 x_a_54 + 3 x_a_55 + 3 x_a_56 + 2 x_a_57 + 2 x_a_58
       + 3 x_a_59 + 2 x_a_60 + 3 x_a_61 + x_a_62 + x_a_63 + x_a_64 + x_a_65
       + 3 x_a_66 + x_a_67 + 2 x_a_68 + 3 x_a_69 + x_a_70 + x_a_71 + 2 x_a_72
       + x_a_73 + 3 x_a_74 + x_a_75 + 3 x_a_76 + 3 x_a_77 + x_a_78 + 2 x_a_79
       + 2 x_a_80 + x_a_81 + x_a_82 + x_a_83 + 3 x_a_84 + 2 x_a_85 + x_a_86
       + x_a_87 + x_a_88 + 3 x_a_89 + 3 x_a_90 + 2 x_a_91 + x_a_92 + x_a_93
       + 2 x_a_94 + 3 x_a_95 + x_a_96 + x_a_97 + x_a_98 + 2 x_a_99 + 3 x_a_100
       + x_a_101 + 3 x_a_102 + 2 x_a_103 + 2 x_a_104 + 3 x_a_105 + 2 x_a_106
       + x_a_107 + x_a_108 + x_a_109 + 3 x_a_110 + 2 x_a_111 + x_a_112
       + x_a_113 + 3 x_a_114 + 2 x_a_115 + 2 x_a_116 + x_a_117 + 3 x_a_118
       + 2 x_a_119 + x_a_120 + 2 x_a_121 + x_a_122 + 2 x_a_123 + 3 x_a_124
       + 3 x_a_125 + 2 x_a_126 + 3 x_a_127 + 3 x_a_128 + 3 x_a_129 + 3 x_a_130
       + 3 x_a_131 + 3 x_a_132 + 3 x_a_133 + 3 x_a_134 + 3 x_a_135 + x_a_136
       + x_a_137 + x_a_138 + x_a_139 + x_a_140 + x_a_141 + 2 x_a_142 + x_a_143
       + 3 x_a_144 + x_a_145 + 3 x_a_146 + 2 x_a_147 + 3 x_a_148 + 2 x_a_149
       + 3 x_a_150 + x_a_151 + 3 x_a_152 + 2 x_a_153 + x_a_154 + 2 x_a_155
       + 2 x_a_156 + 1000000000 x_a_157 + 1000000000 x_a_158
       + 1000000000 x_a_159 + 1000000000 x_a_160 + 1000000000 x_a_161
       + 1000000000 x_a_162 + 1000000000 x_a_163 + 1000000000 x_a_164
       + 1000000000 x_a_165 + 1000000000 x_a_166 + 1000000000 x_a_167
       + 1000000000 x_a_168 + 1000000000 x_a_169 + 1000000000 x_a_170
       + 1000000000 x_a_171 + 1000000000 x_a_172 + 1000000000 x_a_173
       + 1000000000 x_a_174 + 1000000000 x_a_175 + 1000000000 x_a_176
       + 10000 x_a_177
Subject To
 c1:   y_a_157 + y_a_158 + y_a_159 + y_a_160 + y_a_161 + y_a_162 + y_a_163
       + y_a_164 + y_a_165 + y_a_166 <= 222
 c2:   y_a_0 + y_a_1 + y_a_2 + y_a_3 + y_a_4 + y_a_5 + y_a_6 + y_a_7 + y_a_8
        = 0
 c3:   - y_a_163 - y_a_0 + y_a_9 + y_a_10  = 0
 c4:   - y_a_1 + y_a_11 + y_a_12 + y_a_13 + y_a_14 + y_a_15 + y_a_16 + y_a_17
       + y_a_18 + y_a_176  = 0
 c5:   - y_a_2 - y_a_11 + y_a_19 + y_a_20 + y_a_21 + y_a_22 + y_a_23 + y_a_24
        = 0
 c6:   - y_a_158 - y_a_9 - y_a_12 + y_a_25 + y_a_26 + y_a_27 + y_a_28 + y_a_29
       + y_a_30  = 0
 c7:   - y_a_3 - y_a_19 + y_a_31 + y_a_32  = 0
 c8:   - y_a_13 + y_a_33 + y_a_34 + y_a_35 + y_a_36 + y_a_37 + y_a_38 + y_a_39
       + y_a_40  = 0
 c9:   - y_a_4 + y_a_41 + y_a_42 + y_a_43 + y_a_44 + y_a_45  = 0
 c10:  - y_a_161 - y_a_14 + y_a_46 + y_a_47 + y_a_48 + y_a_49 + y_a_50  = 0
 c11:  - y_a_5 - y_a_20 - y_a_33 + y_a_51 + y_a_52 + y_a_53 + y_a_54 + y_a_55
       + y_a_168  = 0
 c12:  - y_a_6 + y_a_56 + y_a_57 + y_a_58 + y_a_59 + y_a_60  = 0
 c13:  - y_a_10 + y_a_61 + y_a_62 + y_a_63 + y_a_64 + y_a_65 + y_a_171  = 0
 c14:  - y_a_160 - y_a_21 - y_a_46 + y_a_66 + y_a_67 + y_a_68  = 0
 c15:  - y_a_164 - y_a_25 - y_a_61 + y_a_69 + y_a_70 + y_a_71 + y_a_72 + y_a_73
       + y_a_74  = 0
 c16:  - y_a_62 - y_a_69 + y_a_75 + y_a_76 + y_a_77 + y_a_78 + y_a_169  = 0
 c17:  - y_a_22 - y_a_51 + y_a_79 + y_a_80 + y_a_81 + y_a_82 + y_a_83  = 0
 c18:  - y_a_34 - y_a_79 + y_a_84 + y_a_85 + y_a_86 + y_a_87  = 0
 c19:  - y_a_26 - y_a_63 - y_a_70 - y_a_84 + y_a_88 + y_a_89 + y_a_90 + y_a_91
       + y_a_92 + y_a_93  = 0
 c20:  - y_a_47 - y_a_80 + y_a_94 + y_a_95 + y_a_96 + y_a_97 + y_a_98 + y_a_99
       + y_a_100 + y_a_101 + y_a_102  = 0
 c21:  - y_a_31 - y_a_66 - y_a_85 - y_a_94 + y_a_103 + y_a_104 + y_a_105
       + y_a_106  = 0
 c22:  - y_a_23 - y_a_52 - y_a_56 + y_a_107 + y_a_108 + y_a_109 + y_a_110  = 0
 c23:  - y_a_41 - y_a_75 + y_a_111 + y_a_112 + y_a_113 + y_a_172  = 0
 c24:  - y_a_67 - y_a_111 + y_a_114 + y_a_115 + y_a_116  = 0
 c25:  - y_a_27 - y_a_42 - y_a_76 - y_a_86 + y_a_117 + y_a_118 + y_a_119  = 0
 c26:  - y_a_28 - y_a_48 - y_a_71 + y_a_120 + y_a_121 + y_a_122 + y_a_123  = 0
 c27:  - y_a_15 - y_a_57 - y_a_88 - y_a_107 - y_a_120 + y_a_124 + y_a_125
       + y_a_126 + y_a_127  = 0
 c28:  - y_a_165 - y_a_24 - y_a_89 - y_a_108 + y_a_128 + y_a_129  = 0
 c29:  - y_a_90 - y_a_95 - y_a_121 + y_a_130 + y_a_131 + y_a_132 + y_a_133  = 0
 c30:  - y_a_162 - y_a_16 - y_a_81 - y_a_87 - y_a_96 - y_a_103 - y_a_130
       + y_a_134 + y_a_135  = 0
 c31:  - y_a_58 - y_a_82 - y_a_91 - y_a_124 - y_a_128 + y_a_136  = 0
 c32:  - y_a_29 - y_a_43 - y_a_109 - y_a_131 - y_a_136  = 0
 c33:  - y_a_97 - y_a_122 - y_a_129 + y_a_137 + y_a_138 + y_a_139 + y_a_140
        = 0
 c34:  - y_a_17 - y_a_49 - y_a_59 - y_a_72 - y_a_112 - y_a_125 - y_a_132
       - y_a_137  = 0
 c35:  - y_a_53 - y_a_64 - y_a_77 - y_a_92 - y_a_138 + y_a_141 + y_a_142
       + y_a_175  = 0
 c36:  - y_a_166 - y_a_7 - y_a_35 - y_a_83 - y_a_98 - y_a_104 + y_a_143
       + y_a_144 + y_a_145  = 0
 c37:  - y_a_157 - y_a_159 - y_a_8 - y_a_36 - y_a_60 - y_a_99 - y_a_114
       - y_a_139 - y_a_141  = 0
 c38:  - y_a_37 - y_a_123 - y_a_133 - y_a_134 + y_a_146 + y_a_147  = 0
 c39:  - y_a_100 - y_a_143 + y_a_148 + y_a_149 + y_a_150 + y_a_173  = 0
 c40:  - y_a_54 - y_a_78 - y_a_105 - y_a_115 + y_a_151 + y_a_152  = 0
 c41:  - y_a_126 + y_a_153  = 0
 c42:  - y_a_18 - y_a_32 - y_a_38 - y_a_73 - y_a_106  = 0
 c43:  - y_a_44 - y_a_74 - y_a_117 - y_a_146 - y_a_148 - y_a_153  = 0
 c44:  - y_a_65 - y_a_101 - y_a_116 - y_a_140 - y_a_149  = 0
 c45:  - y_a_93 - y_a_110 - y_a_118 + y_a_154 + y_a_170  = 0
 c46:  - y_a_30 - y_a_68 - y_a_144 + y_a_155  = 0
 c47:  - y_a_39 - y_a_50 - y_a_135 - y_a_142 - y_a_147 - y_a_151 - y_a_154
       + y_a_174  = 0
 c48:  - y_a_45 - y_a_55 - y_a_102 - y_a_113 - y_a_119 - y_a_127 - y_a_145
       - y_a_150 + y_a_156  = 0
 c49:  - y_a_40 - y_a_152 - y_a_155 - y_a_156 + y_a_167  = 0
 c50:  y_a_157 + y_a_158 + y_a_159 + y_a_160 + y_a_161 + y_a_162 + y_a_163
       + y_a_164 + y_a_165 + y_a_166 - y_a_177  = 0
 c51:  - y_a_176 - y_a_168 - y_a_171 - y_a_169 - y_a_172 - y_a_175 - y_a_173
       - y_a_170 - y_a_174 - y_a_167 + y_a_177  = 0
 c52:  y_a_0 + 48 x_a_0 <= 48
 c53:  y_a_1 + 7 x_a_1 <= 7
 c54:  y_a_2 + 16 x_a_2 <= 16
 c55:  y_a_3 + 44 x_a_3 <= 44
 c56:  y_a_4 + 39 x_a_4 <= 39
 c57:  y_a_5 + 20 x_a_5 <= 20
 c58:  y_a_6 + 41 x_a_6 <= 41
 c59:  y_a_7 + 15 x_a_7 <= 15
 c60:  y_a_8 + 18 x_a_8 <= 18
 c61:  y_a_9 + 7 x_a_9 <= 7
 c62:  y_a_10 + 32 x_a_10 <= 32
 c63:  y_a_11 + 33 x_a_11 <= 33
 c64:  y_a_12 + 19 x_a_12 <= 19
 c65:  y_a_13 + 23 x_a_13 <= 23
 c66:  y_a_14 + 48 x_a_14 <= 48
 c67:  y_a_15 + 13 x_a_15 <= 13
 c68:  y_a_16 + 46 x_a_16 <= 46
 c69:  y_a_17 + 42 x_a_17 <= 42
 c70:  y_a_18 + 15 x_a_18 <= 15
 c71:  y_a_19 + 6 x_a_19 <= 6
 c72:  y_a_20 + 25 x_a_20 <= 25
 c73:  y_a_21 + 34 x_a_21 <= 34
 c74:  y_a_22 + 30 x_a_22 <= 30
 c75:  y_a_23 + 42 x_a_23 <= 42
 c76:  y_a_24 + 6 x_a_24 <= 6
 c77:  y_a_25 + 13 x_a_25 <= 13
 c78:  y_a_26 + 31 x_a_26 <= 31
 c79:  y_a_27 + 10 x_a_27 <= 10
 c80:  y_a_28 + 41 x_a_28 <= 41
 c81:  y_a_29 + 41 x_a_29 <= 41
 c82:  y_a_30 + 19 x_a_30 <= 19
 c83:  y_a_31 + 17 x_a_31 <= 17
 c84:  y_a_32 + 6 x_a_32 <= 6
 c85:  y_a_33 + 35 x_a_33 <= 35
 c86:  y_a_34 + 36 x_a_34 <= 36
 c87:  y_a_35 + 3 x_a_35 <= 3
 c88:  y_a_36 + 28 x_a_36 <= 28
 c89:  y_a_37 + 4 x_a_37 <= 4
 c90:  y_a_38 + 7 x_a_38 <= 7
 c91:  y_a_39 + 24 x_a_39 <= 24
 c92:  y_a_40 + 4 x_a_40 <= 4
 c93:  y_a_41 + 33 x_a_41 <= 33
 c94:  y_a_42 + 35 x_a_42 <= 35
 c95:  y_a_43 + 30 x_a_43 <= 30
 c96:  y_a_44 + 5 x_a_44 <= 5
 c97:  y_a_45 + 45 x_a_45 <= 45
 c98:  y_a_46 + 49 x_a_46 <= 49
 c99:  y_a_47 + 41 x_a_47 <= 41
 c100: y_a_48 + 46 x_a_48 <= 46
 c101: y_a_49 + 10 x_a_49 <= 10
 c102: y_a_50 + 13 x_a_50 <= 13
 c103: y_a_51 + 8 x_a_51 <= 8
 c104: y_a_52 + 8 x_a_52 <= 8
 c105: y_a_53 + x_a_53 <= 1
 c106: y_a_54 + 35 x_a_54 <= 35
 c107: y_a_55 + 24 x_a_55 <= 24
 c108: y_a_56 + 33 x_a_56 <= 33
 c109: y_a_57 + 48 x_a_57 <= 48
 c110: y_a_58 + 23 x_a_58 <= 23
 c111: y_a_59 + 47 x_a_59 <= 47
 c112: y_a_60 + 44 x_a_60 <= 44
 c113: y_a_61 + 18 x_a_61 <= 18
 c114: y_a_62 + 49 x_a_62 <= 49
 c115: y_a_63 + 44 x_a_63 <= 44
 c116: y_a_64 + 47 x_a_64 <= 47
 c117: y_a_65 + 3 x_a_65 <= 3
 c118: y_a_66 + 19 x_a_66 <= 19
 c119: y_a_67 + 2 x_a_67 <= 2
 c120: y_a_68 + 37 x_a_68 <= 37
 c121: y_a_69 + 33 x_a_69 <= 33
 c122: y_a_70 + 44 x_a_70 <= 44
 c123: y_a_71 + x_a_71 <= 1
 c124: y_a_72 + 14 x_a_72 <= 14
 c125: y_a_73 + 6 x_a_73 <= 6
 c126: y_a_74 + 15 x_a_74 <= 15
 c127: y_a_75 + 35 x_a_75 <= 35
 c128: y_a_76 + 45 x_a_76 <= 45
 c129: y_a_77 + 39 x_a_77 <= 39
 c130: y_a_78 + 47 x_a_78 <= 47
 c131: y_a_79 + 31 x_a_79 <= 31
 c132: y_a_80 + 4 x_a_80 <= 4
 c133: y_a_81 + 43 x_a_81 <= 43
 c134: y_a_82 + 24 x_a_82 <= 24
 c135: y_a_83 + 13 x_a_83 <= 13
 c136: y_a_84 + 6 x_a_84 <= 6
 c137: y_a_85 + x_a_85 <= 1
 c138: y_a_86 + 19 x_a_86 <= 19
 c139: y_a_87 + 28 x_a_87 <= 28
 c140: y_a_88 + 38 x_a_88 <= 38
 c141: y_a_89 + 14 x_a_89 <= 14
 c142: y_a_90 + 26 x_a_90 <= 26
 c143: y_a_91 + 31 x_a_91 <= 31
 c144: y_a_92 + 44 x_a_92 <= 44
 c145: y_a_93 + 14 x_a_93 <= 14
 c146: y_a_94 + 4 x_a_94 <= 4
 c147: y_a_95 + 3 x_a_95 <= 3
 c148: y_a_96 + 3 x_a_96 <= 3
 c149: y_a_97 + 48 x_a_97 <= 48
 c150: y_a_98 + x_a_98 <= 1
 c151: y_a_99 + 25 x_a_99 <= 25
 c152: y_a_100 + 37 x_a_100 <= 37
 c153: y_a_101 + 11 x_a_101 <= 11
 c154: y_a_102 + 27 x_a_102 <= 27
 c155: y_a_103 + 48 x_a_103 <= 48
 c156: y_a_104 + 25 x_a_104 <= 25
 c157: y_a_105 + 48 x_a_105 <= 48
 c158: y_a_106 + 44 x_a_106 <= 44
 c159: y_a_107 + 3 x_a_107 <= 3
 c160: y_a_108 + 19 x_a_108 <= 19
 c161: y_a_109 + 3 x_a_109 <= 3
 c162: y_a_110 + 26 x_a_110 <= 26
 c163: y_a_111 + 29 x_a_111 <= 29
 c164: y_a_112 + 43 x_a_112 <= 43
 c165: y_a_113 + 25 x_a_113 <= 25
 c166: y_a_114 + 38 x_a_114 <= 38
 c167: y_a_115 + 12 x_a_115 <= 12
 c168: y_a_116 + 3 x_a_116 <= 3
 c169: y_a_117 + 47 x_a_117 <= 47
 c170: y_a_118 + 8 x_a_118 <= 8
 c171: y_a_119 + 21 x_a_119 <= 21
 c172: y_a_120 + 12 x_a_120 <= 12
 c173: y_a_121 + 3 x_a_121 <= 3
 c174: y_a_122 + 38 x_a_122 <= 38
 c175: y_a_123 + 8 x_a_123 <= 8
 c176: y_a_124 + 4 x_a_124 <= 4
 c177: y_a_125 + 48 x_a_125 <= 48
 c178: y_a_126 + 41 x_a_126 <= 41
 c179: y_a_127 + 32 x_a_127 <= 32
 c180: y_a_128 + 16 x_a_128 <= 16
 c181: y_a_129 + 11 x_a_129 <= 11
 c182: y_a_130 + 49 x_a_130 <= 49
 c183: y_a_131 + 10 x_a_131 <= 10
 c184: y_a_132 + 40 x_a_132 <= 40
 c185: y_a_133 + 24 x_a_133 <= 24
 c186: y_a_134 + 34 x_a_134 <= 34
 c187: y_a_135 + 37 x_a_135 <= 37
 c188: y_a_136 + x_a_136 <= 1
 c189: y_a_137 + 5 x_a_137 <= 5
 c190: y_a_138 + 46 x_a_138 <= 46
 c191: y_a_139 + 23 x_a_139 <= 23
 c192: y_a_140 + 33 x_a_140 <= 33
 c193: y_a_141 + 27 x_a_141 <= 27
 c194: y_a_142 + 37 x_a_142 <= 37
 c195: y_a_143 + 22 x_a_143 <= 22
 c196: y_a_144 + 31 x_a_144 <= 31
 c197: y_a_145 + 36 x_a_145 <= 36
 c198: y_a_146 + 12 x_a_146 <= 12
 c199: y_a_147 + 19 x_a_147 <= 19
 c200: y_a_148 + 4 x_a_148 <= 4
 c201: y_a_149 + 18 x_a_149 <= 18
 c202: y_a_150 + 47 x_a_150 <= 47
 c203: y_a_151 + 42 x_a_151 <= 42
 c204: y_a_152 + 20 x_a_152 <= 20
 c205: y_a_153 + 45 x_a_153 <= 45
 c206: y_a_154 + x_a_154 <= 1
 c207: y_a_155 + 28 x_a_155 <= 28
 c208: y_a_156 + 12 x_a_156 <= 12
 c209: y_a_157 + 50000000 x_a_157 <= 50000000
 c210: y_a_158 + 50000000 x_a_158 <= 50000000
 c211: y_a_159 + 50000000 x_a_159 <= 50000000
 c212: y_a_160 + 50000000 x_a_160 <= 50000000
 c213: y_a_161 + 50000000 x_a_161 <= 50000000
 c214: y_a_162 + 50000000 x_a_162 <= 50000000
 c215: y_a_163 + 50000000 x_a_163 <= 50000000
 c216: y_a_164 + 50000000 x_a_164 <= 50000000
 c217: y_a_165 + 50000000 x_a_165 <= 50000000
 c218: y_a_166 + 50000000 x_a_166 <= 50000000
 c219: y_a_167 + 50000000 x_a_167 <= 50000000
 c220: y_a_168 + 50000000 x_a_168 <= 50000000
 c221: y_a_169 + 50000000 x_a_169 <= 50000000
 c222: y_a_170 + 50000000 x_a_170 <= 50000000
 c223: y_a_171 + 50000000 x_a_171 <= 50000000
 c224: y_a_172 + 50000000 x_a_172 <= 50000000
 c225: y_a_173 + 50000000 x_a_173 <= 50000000
 c226: y_a_174 + 50000000 x_a_174 <= 50000000
 c227: y_a_175 + 50000000 x_a_175 <= 50000000
 c228: y_a_176 + 50000000 x_a_176 <= 50000000
 c229: y_a_177 + 10000 x_a_177 <= 10000
Bounds
 0 <= x_a_0 <= 1
 0 <= x_a_1 <= 1
 0 <= x_a_2 <= 1
 0 <= x_a_3 <= 1
 0 <= x_a_4 <= 1
 0 <= x_a_5 <= 1
 0 <= x_a_6 <= 1
 0 <= x_a_7 <= 1
 0 <= x_a_8 <= 1
 0 <= x_a_9 <= 1
 0 <= x_a_10 <= 1
 0 <= x_a_11 <= 1
 0 <= x_a_12 <= 1
 0 <= x_a_13 <= 1
 0 <= x_a_14 <= 1
 0 <= x_a_15 <= 1
 0 <= x_a_16 <= 1
 0 <= x_a_17 <= 1
 0 <= x_a_18 <= 1
 0 <= x_a_19 <= 1
 0 <= x_a_20 <= 1
 0 <= x_a_21 <= 1
 0 <= x_a_22 <= 1
 0 <= x_a_23 <= 1
 0 <= x_a_24 <= 1
 0 <= x_a_25 <= 1
 0 <= x_a_26 <= 1
 0 <= x_a_27 <= 1
 0 <= x_a_28 <= 1
 0 <= x_a_29 <= 1
 0 <= x_a_30 <= 1
 0 <= x_a_31 <= 1
 0 <= x_a_32 <= 1
 0 <= x_a_33 <= 1
 0 <= x_a_34 <= 1
 0 <= x_a_35 <= 1
 0 <= x_a_36 <= 1
 0 <= x_a_37 <= 1
 0 <= x_a_38 <= 1
 0 <= x_a_39 <= 1
 0 <= x_a_40 <= 1
 0 <= x_a_41 <= 1
 0 <= x_a_42 <= 1
 0 <= x_a_43 <= 1
 0 <= x_a_44 <= 1
 0 <= x_a_45 <= 1
 0 <= x_a_46 <= 1
 0 <= x_a_47 <= 1
 0 <= x_a_48 <= 1
 0 <= x_a_49 <= 1
 0 <= x_a_50 <= 1
 0 <= x_a_51 <= 1
 0 <= x_a_52 <= 1
 0 <= x_a_53 <= 1
 0 <= x_a_54 <= 1
 0 <= x_a_55 <= 1
 0 <= x_a_56 <= 1
 0 <= x_a_57 <= 1
 0 <= x_a_58 <= 1
 0 <= x_a_59 <= 1
 0 <= x_a_60 <= 1
 0 <= x_a_61 <= 1
 0 <= x_a_62 <= 1
 0 <= x_a_63 <= 1
 0 <= x_a_64 <= 1
 0 <= x_a_65 <= 1
 0 <= x_a_66 <= 1
 0 <= x_a_67 <= 1
 0 <= x_a_68 <= 1
 0 <= x_a_69 <= 1
 0 <= x_a_70 <= 1
 0 <= x_a_71 <= 1
 0 <= x_a_72 <= 1
 0 <= x_a_73 <= 1
 0 <= x_a_74 <= 1
 0 <= x_a_75 <= 1
 0 <= x_a_76 <= 1
 0 <= x_a_77 <= 1
 0 <= x_a_78 <= 1
 0 <= x_a_79 <= 1
 0 <= x_a_80 <= 1
 0 <= x_a_81 <= 1
 0 <= x_a_82 <= 1
 0 <= x_a_83 <= 1
 0 <= x_a_84 <= 1
 0 <= x_a_85 <= 1
 0 <= x_a_86 <= 1
 0 <= x_a_87 <= 1
 0 <= x_a_88 <= 1
 0 <= x_a_89 <= 1
 0 <= x_a_90 <= 1
 0 <= x_a_91 <= 1
 0 <= x_a_92 <= 1
 0 <= x_a_93 <= 1
 0 <= x_a_94 <= 1
 0 <= x_a_95 <= 1
 0 <= x_a_96 <= 1
 0 <= x_a_97 <= 1
 0 <= x_a_98 <= 1
 0 <= x_a_99 <= 1
 0 <= x_a_100 <= 1
 0 <= x_a_101 <= 1
 0 <= x_a_102 <= 1
 0 <= x_a_103 <= 1
 0 <= x_a_104 <= 1
 0 <= x_a_105 <= 1
 0 <= x_a_106 <= 1
 0 <= x_a_107 <= 1
 0 <= x_a_108 <= 1
 0 <= x_a_109 <= 1
 0 <= x_a_110 <= 1
 0 <= x_a_111 <= 1
 0 <= x_a_112 <= 1
 0 <= x_a_113 <= 1
 0 <= x_a_114 <= 1
 0 <= x_a_115 <= 1
 0 <= x_a_116 <= 1
 0 <= x_a_117 <= 1
 0 <= x_a_118 <= 1
 0 <= x_a_119 <= 1
 0 <= x_a_120 <= 1
 0 <= x_a_121 <= 1
 0 <= x_a_122 <= 1
 0 <= x_a_123 <= 1
 0 <= x_a_124 <= 1
 0 <= x_a_125 <= 1
 0 <= x_a_126 <= 1
 0 <= x_a_127 <= 1
 0 <= x_a_128 <= 1
 0 <= x_a_129 <= 1
 0 <= x_a_130 <= 1
 0 <= x_a_131 <= 1
 0 <= x_a_132 <= 1
 0 <= x_a_133 <= 1
 0 <= x_a_134 <= 1
 0 <= x_a_135 <= 1
 0 <= x_a_136 <= 1
 0 <= x_a_137 <= 1
 0 <= x_a_138 <= 1
 0 <= x_a_139 <= 1
 0 <= x_a_140 <= 1
 0 <= x_a_141 <= 1
 0 <= x_a_142 <= 1
 0 <= x_a_143 <= 1
 0 <= x_a_144 <= 1
 0 <= x_a_145 <= 1
 0 <= x_a_146 <= 1
 0 <= x_a_147 <= 1
 0 <= x_a_148 <= 1
 0 <= x_a_149 <= 1
 0 <= x_a_150 <= 1
 0 <= x_a_151 <= 1
 0 <= x_a_152 <= 1
 0 <= x_a_153 <= 1
 0 <= x_a_154 <= 1
 0 <= x_a_155 <= 1
 0 <= x_a_156 <= 1
 0 <= x_a_157 <= 1
 0 <= x_a_158 <= 1
 0 <= x_a_159 <= 1
 0 <= x_a_160 <= 1
 0 <= x_a_161 <= 1
 0 <= x_a_162 <= 1
 0 <= x_a_163 <= 1
 0 <= x_a_164 <= 1
 0 <= x_a_165 <= 1
 0 <= x_a_166 <= 1
 0 <= x_a_167 <= 1
 0 <= x_a_168 <= 1
 0 <= x_a_169 <= 1
 0 <= x_a_170 <= 1
 0 <= x_a_171 <= 1
 0 <= x_a_172 <= 1
 0 <= x_a_173 <= 1
 0 <= x_a_174 <= 1
 0 <= x_a_175 <= 1
 0 <= x_a_176 <= 1
 0 <= x_a_177 <= 1
Binaries
 x_a_0  x_a_1  x_a_2  x_a_3  x_a_4  x_a_5  x_a_6  x_a_7  x_a_8  x_a_9  x_a_10 
 x_a_11  x_a_12  x_a_13  x_a_14  x_a_15  x_a_16  x_a_17  x_a_18  x_a_19 
 x_a_20  x_a_21  x_a_22  x_a_23  x_a_24  x_a_25  x_a_26  x_a_27  x_a_28 
 x_a_29  x_a_30  x_a_31  x_a_32  x_a_33  x_a_34  x_a_35  x_a_36  x_a_37 
 x_a_38  x_a_39  x_a_40  x_a_41  x_a_42  x_a_43  x_a_44  x_a_45  x_a_46 
 x_a_47  x_a_48  x_a_49  x_a_50  x_a_51  x_a_52  x_a_53  x_a_54  x_a_55 
 x_a_56  x_a_57  x_a_58  x_a_59  x_a_60  x_a_61  x_a_62  x_a_63  x_a_64 
 x_a_65  x_a_66  x_a_67  x_a_68  x_a_69  x_a_70  x_a_71  x_a_72  x_a_73 
 x_a_74  x_a_75  x_a_76  x_a_77  x_a_78  x_a_79  x_a_80  x_a_81  x_a_82 
 x_a_83  x_a_84  x_a_85  x_a_86  x_a_87  x_a_88  x_a_89  x_a_90  x_a_91 
 x_a_92  x_a_93  x_a_94  x_a_95  x_a_96  x_a_97  x_a_98  x_a_99  x_a_100 
 x_a_101  x_a_102  x_a_103  x_a_104  x_a_105  x_a_106  x_a_107  x_a_108 
 x_a_109  x_a_110  x_a_111  x_a_112  x_a_113  x_a_114  x_a_115  x_a_116 
 x_a_117  x_a_118  x_a_119  x_a_120  x_a_121  x_a_122  x_a_123  x_a_124 
 x_a_125  x_a_126  x_a_127  x_a_128  x_a_129  x_a_130  x_a_131  x_a_132 
 x_a_133  x_a_134  x_a_135  x_a_136  x_a_137  x_a_138  x_a_139  x_a_140 
 x_a_141  x_a_142  x_a_143  x_a_144  x_a_145  x_a_146  x_a_147  x_a_148 
 x_a_149  x_a_150  x_a_151  x_a_152  x_a_153  x_a_154  x_a_155  x_a_156 
 x_a_157  x_a_158  x_a_159  x_a_160  x_a_161  x_a_162  x_a_163  x_a_164 
 x_a_165  x_a_166  x_a_167  x_a_168  x_a_169  x_a_170  x_a_171  x_a_172 
 x_a_173  x_a_174  x_a_175  x_a_176  x_a_177 
End
